Route #1: 98
Route #2: 91 89 71 81 86 136 83 68 116 128 101 11 14 33 135 102 100 67 42 15 8 39 51 84 30 7 3
Route #3: 76 138 122 111 105 46 43 77 106 82 64 127 130 93 132 107 92 41 80 78 133 75 120 73 20 79 54 56
Route #4: 110 35 58 13 31 97 74 62 4 23 26 9 137 114 85 24 126 95 118 32 16 124 88 109 45 121
Route #5: 70 10 50 123 27 115 34 131 38 69 94 108 22 112 25 125 36 129 53 96 5 6 113 90 49 2 99 87 52
Route #6: 104 63 28 103 21 55 18 1 119 47 17 37 40 134 59 60 65 48 61 19 66 12 117 72 44 57 29
Cost 11182.000000